500
[50,52,53,56,58,59,60,63,64,65,67,68,69,74,76,78,82,85,86,87,88,90,91,92,93,94,95,96,104,108,109,111,112,114,115,117,118,122,124,130,132,135,137,138,139,140,142,143,145,146,148,150,153,154,155,156,158,159,160,161,162,163,164,165,168,169,170,171,174,175,176,178,182,186,190,191,194,195,196,197,198,199,200,202,203,211,212,213,214,215,216,217,218,219,222,223,224,225,227,230,231,232,233,235,237,239,240,241,242,243,244,245,249,250,251,252,253,255,256,258,259,261,262,263,264,265,266,269,270,271,272,274,275,276,277,279,280,283,284,285,286,287,289,294,295,296,297,304,306,308,309,310,311,312,313,317,318,319,320,323,326,328,329,337,339,341,342,344,345,346,349,350,354,356,361,362,363,365,366,368,369,370,371,376,379,380,382,384,385,386,389,392,393,394,395,396,398,400]
[2,2,1,1,1,1,1,1,2,1,1,1,2,1,2,2,1,2,1,2,1,2,2,1,2,2,2,2,1,1,1,1,3,1,1,1,1,1,1,1,1,1,1,1,1,2,3,2,1,1,1,2,1,2,2,2,3,2,1,1,1,1,2,1,3,2,2,1,2,2,2,1,1,1,1,1,2,2,1,1,2,1,1,3,1,3,1,1,1,2,2,1,1,3,1,2,1,1,1,1,1,2,1,2,2,1,1,1,1,1,2,2,1,2,1,1,1,2,1,1,1,1,2,1,1,1,1,1,1,1,2,1,3,1,2,1,2,1,2,1,2,1,1,2,1,1,1,1,2,1,1,1,2,3,1,1,2,1,1,1,3,1,2,2,2,2,3,3,2,5,1,1,1,2,3,1,2,1,1,1,4,1,1,3,2,3,1,1,1,1,2,2,2,4,2,1,1,1]
